Poscar v1.1 :: 1 :: O Si                
    1.000000000000000     
     5.0377952814386010    0.0000000000000000    0.0000000000000000
     0.0000000000000000    8.4294825084890250    0.0000000000000000
     0.0000000000000000    0.0000000000000000   26.7428818440760900
   O    Si
    48    24
Direct
  0.2376115624076021  0.7965008669159858  0.4907295598120300
  0.7376115624076028  0.7034991330840142  0.5092704401879691
  0.7623884375923972  0.2965008669159858  0.0092704401879693
  0.2623884375923978  0.2034991330840143  0.9907295598120309
  0.0662996532278628  0.2631223057248858  0.4861071226040824
  0.5662996532278626  0.2368776942751143  0.5138928773959172
  0.9337003467721374  0.7631223057248858  0.0138928773959177
  0.4337003467721366  0.7368776942751142  0.9861071226040828
  0.7434507642259818  0.8090656790033700  0.6586876021111578
  0.2434507642259829  0.6909343209966300  0.3413123978888428
  0.2565492357740173  0.3090656790033700  0.8413123978888422
  0.7565492357740182  0.1909343209966305  0.1586876021111574
  0.5667317131803928  0.2747569907455981  0.6520116135420649
  0.0667317131803927  0.2252430092544015  0.3479883864579346
  0.4332682868196074  0.7747569907455979  0.8479883864579351
  0.9332682868196072  0.7252430092544021  0.1520116135420656
  0.2437796077458503  0.7142411917172258  0.6757367128366781
  0.5637680007456758  0.7716452195397107  0.7513057249541316
  0.7437796077458505  0.7857588082827742  0.3242632871633228
  0.2562203922541502  0.2857588082827747  0.1757367128366775
  0.0665759047546544  0.2470427222968671  0.6795800337989002
  0.5665759047546547  0.2529572777031325  0.3204199662011000
  0.9334240952453453  0.7470427222968666  0.8204199662010998
  0.4334240952453458  0.7529572777031334  0.1795800337988998
  0.1078218862333190  0.9910141540088226  0.1952826830222113
  0.6078218862333189  0.5089858459911774  0.8047173169777889
  0.8921781137666811  0.4910141540088235  0.3047173169777886
  0.3921781137666817  0.0089858459911765  0.6952826830222111
  0.6078638165569875  0.4846342948015964  0.1384692474292274
  0.1078638165569879  0.0153657051984038  0.8615307525707726
  0.3921361834430117  0.9846342948015968  0.3615307525707726
  0.8921361834430125  0.5153657051984032  0.6384692474292274
  0.6086364553030426  0.0028425602047272  0.0288294883982505
  0.1086364553030422  0.4971574397952730  0.9711705116017496
  0.3913635446969577  0.5028425602047275  0.4711705116017499
  0.8913635446969574 -0.0028425602047273  0.5288294883982504
  0.5554008246554698  0.7419428294957002  0.0828174651552119
  0.0554008246554698  0.7580571705042998  0.9171825348447883
  0.4445991753445301  0.2419428294957003  0.4171825348447877
  0.9445991753445302  0.2580571705043001  0.5828174651552117
  0.4269069777014207  0.2439577419997330  0.0834634787255581
  0.9269069777014213  0.2560422580002676  0.9165365212744353
  0.5730930222985787  0.7439577419997336  0.4165365212744419
  0.0730930222985792  0.7560422580002664  0.5834634787255647
  0.9362319992543242  0.2283547804602895  0.2513057249541316
  0.4362319992543247  0.2716452195397106  0.7486942750458684
  0.0637680007456753  0.7283547804602893  0.2486942750458683
  0.7562203922541495  0.2142411917172257  0.8242632871633219
  0.4865078480857657  0.8257282702500413  0.6952086783117111
 -0.0134921519142343  0.6742717297499587  0.3047913216882895
  0.5134921519142339  0.3257282702500416  0.8047913216882889
  0.0134921519142344  0.1742717297499584  0.1952086783117107
  0.3697058699784793  0.2002898357309370  0.6940486685781988
  0.8697058699784792  0.2997101642690627  0.3059513314218016
  0.6302941300215208  0.7002898357309368  0.8059513314218012
  0.1302941300215208  0.7997101642690632  0.1940486685781986
 -0.0160752535120629  0.8136226991209681  0.5279670942424575
  0.4839247464879370  0.6863773008790319  0.4720329057575423
  0.0160752535120629  0.3136226991209698  0.9720329057575425
  0.5160752535120641  0.1863773008790304  0.0279670942424575
  0.8691741124943880  0.1885759130970267  0.5280701190668456
  0.3691741124943873  0.3114240869029734  0.4719298809331541
  0.1308258875056126  0.6885759130970265  0.9719298809331544
  0.6308258875056120  0.8114240869029735  0.0280701190668461
 -0.0127479361409245  0.6984612637741606  0.6391736744484015
  0.4872520638590755  0.8015387362258394  0.3608263255515987
  0.0127479361409244  0.1984612637741608  0.8608263255515985
  0.5127479361409246  0.3015387362258390  0.1391736744484012
  0.8696308241927465  0.3239356515364743  0.6380361501123220
  0.3696308241927470  0.1760643484635259  0.3619638498876778
  0.1303691758072531  0.8239356515364747  0.8619638498876780
  0.6303691758072535  0.6760643484635253  0.1380361501123221

  0.00000000E+00  0.00000000E+00  0.00000000E+00
  0.00000000E+00  0.00000000E+00  0.00000000E+00
  0.00000000E+00  0.00000000E+00  0.00000000E+00
  0.00000000E+00  0.00000000E+00  0.00000000E+00
  0.00000000E+00  0.00000000E+00  0.00000000E+00
  0.00000000E+00  0.00000000E+00  0.00000000E+00
  0.00000000E+00  0.00000000E+00  0.00000000E+00
  0.00000000E+00  0.00000000E+00  0.00000000E+00
  0.00000000E+00  0.00000000E+00  0.00000000E+00
  0.00000000E+00  0.00000000E+00  0.00000000E+00
  0.00000000E+00  0.00000000E+00  0.00000000E+00
  0.00000000E+00  0.00000000E+00  0.00000000E+00
  0.00000000E+00  0.00000000E+00  0.00000000E+00
  0.00000000E+00  0.00000000E+00  0.00000000E+00
  0.00000000E+00  0.00000000E+00  0.00000000E+00
  0.00000000E+00  0.00000000E+00  0.00000000E+00
  0.00000000E+00  0.00000000E+00  0.00000000E+00
  0.00000000E+00  0.00000000E+00  0.00000000E+00
  0.00000000E+00  0.00000000E+00  0.00000000E+00
  0.00000000E+00  0.00000000E+00  0.00000000E+00
  0.00000000E+00  0.00000000E+00  0.00000000E+00
  0.00000000E+00  0.00000000E+00  0.00000000E+00
  0.00000000E+00  0.00000000E+00  0.00000000E+00
  0.00000000E+00  0.00000000E+00  0.00000000E+00
  0.00000000E+00  0.00000000E+00  0.00000000E+00
  0.00000000E+00  0.00000000E+00  0.00000000E+00
  0.00000000E+00  0.00000000E+00  0.00000000E+00
  0.00000000E+00  0.00000000E+00  0.00000000E+00
  0.00000000E+00  0.00000000E+00  0.00000000E+00
  0.00000000E+00  0.00000000E+00  0.00000000E+00
  0.00000000E+00  0.00000000E+00  0.00000000E+00
  0.00000000E+00  0.00000000E+00  0.00000000E+00
  0.00000000E+00  0.00000000E+00  0.00000000E+00
  0.00000000E+00  0.00000000E+00  0.00000000E+00
  0.00000000E+00  0.00000000E+00  0.00000000E+00
  0.00000000E+00  0.00000000E+00  0.00000000E+00
  0.00000000E+00  0.00000000E+00  0.00000000E+00
  0.00000000E+00  0.00000000E+00  0.00000000E+00
  0.00000000E+00  0.00000000E+00  0.00000000E+00
  0.00000000E+00  0.00000000E+00  0.00000000E+00
  0.00000000E+00  0.00000000E+00  0.00000000E+00
  0.00000000E+00  0.00000000E+00  0.00000000E+00
  0.00000000E+00  0.00000000E+00  0.00000000E+00
  0.00000000E+00  0.00000000E+00  0.00000000E+00
  0.00000000E+00  0.00000000E+00  0.00000000E+00
  0.00000000E+00  0.00000000E+00  0.00000000E+00
  0.00000000E+00  0.00000000E+00  0.00000000E+00
  0.00000000E+00  0.00000000E+00  0.00000000E+00
  0.00000000E+00  0.00000000E+00  0.00000000E+00
  0.00000000E+00  0.00000000E+00  0.00000000E+00
  0.00000000E+00  0.00000000E+00  0.00000000E+00
  0.00000000E+00  0.00000000E+00  0.00000000E+00
  0.00000000E+00  0.00000000E+00  0.00000000E+00
  0.00000000E+00  0.00000000E+00  0.00000000E+00
  0.00000000E+00  0.00000000E+00  0.00000000E+00
  0.00000000E+00  0.00000000E+00  0.00000000E+00
  0.00000000E+00  0.00000000E+00  0.00000000E+00
  0.00000000E+00  0.00000000E+00  0.00000000E+00
  0.00000000E+00  0.00000000E+00  0.00000000E+00
  0.00000000E+00  0.00000000E+00  0.00000000E+00
  0.00000000E+00  0.00000000E+00  0.00000000E+00
  0.00000000E+00  0.00000000E+00  0.00000000E+00
  0.00000000E+00  0.00000000E+00  0.00000000E+00
  0.00000000E+00  0.00000000E+00  0.00000000E+00
  0.00000000E+00  0.00000000E+00  0.00000000E+00
  0.00000000E+00  0.00000000E+00  0.00000000E+00
  0.00000000E+00  0.00000000E+00  0.00000000E+00
  0.00000000E+00  0.00000000E+00  0.00000000E+00
  0.00000000E+00  0.00000000E+00  0.00000000E+00
  0.00000000E+00  0.00000000E+00  0.00000000E+00
  0.00000000E+00  0.00000000E+00  0.00000000E+00
  0.00000000E+00  0.00000000E+00  0.00000000E+00
