Poscar v1.1 :: 1 :: P Fe Th
1.0
3.7670000000 0.0000000000 0.0000000000
0.0000000000 10.5810000000 0.0000000000
0.0000000000 0.0000000000 12.1080000000
 12 20 4
Direct
0.2500000000 0.6050000000 0.3940000000
0.7500000000 0.3950000000 0.6060000000
0.7500000000 0.1050000000 0.1060000000
0.2500000000 0.8950000000 0.8940000000
0.7500000000 0.7722000000 0.6311000000
0.2500000000 0.2278000000 0.3689000000
0.2500000000 0.4216000000 0.1109000000
0.7500000000 0.5784000000 0.8891000000
0.7500000000 0.9216000000 0.3891000000
0.2500000000 0.0784000000 0.6109000000
0.2500000000 0.2722000000 0.8689000000
0.7500000000 0.7278000000 0.1311000000
0.2500000000 0.4041000000 0.4901000000
0.7500000000 0.7209000000 0.3249000000
0.7500000000 0.7791000000 0.8249000000
0.2500000000 0.2791000000 0.6751000000
0.2500000000 0.6209000000 0.1979000000
0.7500000000 0.3791000000 0.8021000000
0.7500000000 0.1209000000 0.3021000000
0.2500000000 0.8791000000 0.6979000000
0.2500000000 0.0337000000 0.4339000000
0.7500000000 0.9663000000 0.5661000000
0.7500000000 0.5337000000 0.0661000000
0.2500000000 0.4663000000 0.9339000000
0.7500000000 0.9041000000 0.0099000000
0.2500000000 0.0959000000 0.9901000000
0.2500000000 0.7044000000 0.9881000000
0.7500000000 0.2956000000 0.0119000000
0.7500000000 0.2044000000 0.5119000000
0.2500000000 0.7956000000 0.4881000000
0.2500000000 0.2209000000 0.1751000000
0.7500000000 0.5959000000 0.5099000000
0.2500000000 0.5816500000 0.7040900000
0.7500000000 0.4183500000 0.2959100000
0.7500000000 0.0816500000 0.7959100000
0.2500000000 0.9183500000 0.2040900000
