#Default RubyVasp from initialize
ISIF = 3
NSW = 200
NELM = 100
ISPIN = 2
ALGO = FAST
SYSTEM = RubyVaspy :: B O Zn Tb
ENCUT = 520
LREAL = AUTO
EDIFF = 0.0000020
PREC = Accurate
NELMIN = 3
ISMEAR = -5
SIGMA = 0.05
LWAVE = .TRUE.
ICHARG = 1
NPAR = 1
MAGMOM = 20*0.6 40*0.6 4*5.0 4*0.6
IBRION=1
