#Generated by RubyVasp
0
Monkhorst
8 4 2
0 0 0
