Poscar v1.1 :: 1 :: P Fe Th             
    1.000000000000000     
     3.7670000000000000    0.0000000000000000    0.0000000000000000
     0.0000000000000000   10.5810000000000000    0.0000000000000000
     0.0000000000000000    0.0000000000000000   12.1080000000000000
   P    Fe   Th
    12    20     4
Direct
  0.2500000000000000  0.6049999999999969  0.3939999999999984
  0.7500000000000000  0.3950000000000031  0.6060000000000016
  0.7500000000000000  0.1049999999999969  0.1060000000000016
  0.2500000000000000  0.8950000000000031  0.8939999999999984
  0.7500000000000000  0.7721999999999980  0.6311000000000035
  0.2500000000000000  0.2278000000000020  0.3688999999999965
  0.2500000000000000  0.4215999999999980  0.1109000000000009
  0.7500000000000000  0.5784000000000020  0.8890999999999991
  0.7500000000000000  0.9215999999999980  0.3890999999999991
  0.2500000000000000  0.0784000000000020  0.6109000000000009
  0.2500000000000000  0.2721999999999980  0.8688999999999965
  0.7500000000000000  0.7278000000000020  0.1311000000000035
  0.2500000000000000  0.4040999999999997  0.4900999999999982
  0.7500000000000000  0.7209000000000003  0.3248999999999995
  0.7500000000000000  0.7790999999999997  0.8248999999999995
  0.2500000000000000  0.2790999999999997  0.6751000000000005
  0.2500000000000000  0.6208999999999989  0.1978999999999971
  0.7500000000000000  0.3791000000000011  0.8021000000000029
  0.7500000000000000  0.1208999999999989  0.3021000000000029
  0.2500000000000000  0.8791000000000011  0.6978999999999971
  0.2500000000000000  0.0337000000000032  0.4339000000000013
  0.7500000000000000  0.9662999999999968  0.5660999999999987
  0.7500000000000000  0.5337000000000032  0.0660999999999987
  0.2500000000000000  0.4662999999999968  0.9339000000000013
  0.7500000000000000  0.9040999999999997  0.0099000000000018
  0.2500000000000000  0.0959000000000003  0.9900999999999982
  0.2500000000000000  0.7043999999999997  0.9881000000000029
  0.7500000000000000  0.2956000000000003  0.0118999999999971
  0.7500000000000000  0.2043999999999997  0.5118999999999971
  0.2500000000000000  0.7956000000000003  0.4881000000000029
  0.2500000000000000  0.2209000000000003  0.1751000000000005
  0.7500000000000000  0.5959000000000003  0.5099000000000018
  0.2500000000000000  0.5816500000000033  0.7040900000000008
  0.7500000000000000  0.4183499999999967  0.2959099999999992
  0.7500000000000000  0.0816500000000033  0.7959099999999992
  0.2500000000000000  0.9183499999999967  0.2040900000000008

  0.00000000E+00  0.00000000E+00  0.00000000E+00
  0.00000000E+00  0.00000000E+00  0.00000000E+00
  0.00000000E+00  0.00000000E+00  0.00000000E+00
  0.00000000E+00  0.00000000E+00  0.00000000E+00
  0.00000000E+00  0.00000000E+00  0.00000000E+00
  0.00000000E+00  0.00000000E+00  0.00000000E+00
  0.00000000E+00  0.00000000E+00  0.00000000E+00
  0.00000000E+00  0.00000000E+00  0.00000000E+00
  0.00000000E+00  0.00000000E+00  0.00000000E+00
  0.00000000E+00  0.00000000E+00  0.00000000E+00
  0.00000000E+00  0.00000000E+00  0.00000000E+00
  0.00000000E+00  0.00000000E+00  0.00000000E+00
  0.00000000E+00  0.00000000E+00  0.00000000E+00
  0.00000000E+00  0.00000000E+00  0.00000000E+00
  0.00000000E+00  0.00000000E+00  0.00000000E+00
  0.00000000E+00  0.00000000E+00  0.00000000E+00
  0.00000000E+00  0.00000000E+00  0.00000000E+00
  0.00000000E+00  0.00000000E+00  0.00000000E+00
  0.00000000E+00  0.00000000E+00  0.00000000E+00
  0.00000000E+00  0.00000000E+00  0.00000000E+00
  0.00000000E+00  0.00000000E+00  0.00000000E+00
  0.00000000E+00  0.00000000E+00  0.00000000E+00
  0.00000000E+00  0.00000000E+00  0.00000000E+00
  0.00000000E+00  0.00000000E+00  0.00000000E+00
  0.00000000E+00  0.00000000E+00  0.00000000E+00
  0.00000000E+00  0.00000000E+00  0.00000000E+00
  0.00000000E+00  0.00000000E+00  0.00000000E+00
  0.00000000E+00  0.00000000E+00  0.00000000E+00
  0.00000000E+00  0.00000000E+00  0.00000000E+00
  0.00000000E+00  0.00000000E+00  0.00000000E+00
  0.00000000E+00  0.00000000E+00  0.00000000E+00
  0.00000000E+00  0.00000000E+00  0.00000000E+00
  0.00000000E+00  0.00000000E+00  0.00000000E+00
  0.00000000E+00  0.00000000E+00  0.00000000E+00
  0.00000000E+00  0.00000000E+00  0.00000000E+00
  0.00000000E+00  0.00000000E+00  0.00000000E+00
