Automatic kpoint scheme
0
Monkhorst
4 4 4
