Li2 O1
1.0
2.305000 2.305000 0.000000
0.000000 2.305000 2.305000
2.305000 0.000000 2.305000
Li O
2 1
direct
0.750000 0.750000 0.750000 Li+
0.250000 0.250000 0.250000 Li+
0.000000 0.000000 0.000000 O2-
