#Generated by RubyVasp
0
Monkhorst
6 4 2
0 0 0
