Poscar v1.1 :: 1 :: O Si
1.0
4.9870000000 0.0000000000 0.0000000000 
0.0000000000 8.1990000000 0.0000000000 
0.0000000000 0.0000000000 26.1630000000 
 48 24
Direct
0.2490000000 0.7850000000 0.4911000000
0.7490000000 0.7150000000 0.5089000000
0.7510000000 0.2850000000 0.0089000000
0.2510000000 0.2150000000 0.9911000000
0.0820000000 0.2730000000 0.4893000000
0.5820000000 0.2270000000 0.5107000000
0.9180000000 0.7730000000 0.0107000000
0.4180000000 0.7270000000 0.9893000000
0.7460000000 0.8010000000 0.6572000000
0.2460000000 0.6990000000 0.3428000000
0.2540000000 0.3010000000 0.8428000000
0.7540000000 0.1990000000 0.1572000000
0.5900000000 0.2850000000 0.6564000000
0.0900000000 0.2150000000 0.3436000000
0.4100000000 0.7850000000 0.8436000000
0.9100000000 0.7150000000 0.1564000000
0.2470000000 0.7250000000 0.6754000000
0.5860000000 0.7660000000 0.7484000000
0.7470000000 0.7750000000 0.3246000000
0.2530000000 0.2750000000 0.1754000000
0.0880000000 0.2350000000 0.6762000000
0.5880000000 0.2650000000 0.3238000000
0.9120000000 0.7350000000 0.8238000000
0.4120000000 0.7650000000 0.1762000000
0.0580000000 0.9860000000 0.1935000000
0.5580000000 0.5140000000 0.8065000000
0.9420000000 0.4860000000 0.3065000000
0.4420000000 0.0140000000 0.6935000000
0.5650000000 0.4900000000 0.1403000000
0.0650000000 0.0100000000 0.8597000000
0.4350000000 0.9900000000 0.3597000000
0.9350000000 0.5100000000 0.6403000000
0.5680000000 0.0010000000 0.0299000000
0.0680000000 0.4990000000 0.9701000000
0.4320000000 0.5010000000 0.4701000000
0.9320000000 0.9990000000 0.5299000000
0.5630000000 0.7430000000 0.0825000000
0.0630000000 0.7570000000 0.9175000000
0.4370000000 0.2430000000 0.4175000000
0.9370000000 0.2570000000 0.5825000000
0.4280000000 0.2410000000 0.0823000000
0.9280000000 0.2590000000 0.9177000000
0.5720000000 0.7410000000 0.4177000000
0.0720000000 0.7590000000 0.5823000000
0.9140000000 0.2340000000 0.2484000000
0.4140000000 0.2660000000 0.7516000000
0.0860000000 0.7340000000 0.2516000000
0.7530000000 0.2250000000 0.8246000000
0.5046000000 0.8260000000 0.6945000000
0.0046000000 0.6740000000 0.3055000000
0.4954000000 0.3260000000 0.8055000000
0.9954000000 0.1740000000 0.1945000000
0.3869000000 0.1987000000 0.6946000000
0.8869000000 0.3013000000 0.3054000000
0.6131000000 0.6987000000 0.8054000000
0.1131000000 0.8013000000 0.1946000000
0.9981000000 0.8157000000 0.5282000000
0.4981000000 0.6843000000 0.4718000000
0.0019000000 0.3157000000 0.9718000000
0.5019000000 0.1843000000 0.0282000000
0.8820000000 0.1882000000 0.5278000000
0.3820000000 0.3118000000 0.4722000000
0.1180000000 0.6882000000 0.9722000000
0.6180000000 0.8118000000 0.0278000000
0.0043000000 0.6988000000 0.6393000000
0.5043000000 0.8012000000 0.3607000000
0.9957000000 0.1988000000 0.8607000000
0.4957000000 0.3012000000 0.1393000000
0.8888000000 0.3214000000 0.6390000000
0.3888000000 0.1786000000 0.3610000000
0.1112000000 0.8214000000 0.8610000000
0.6112000000 0.6786000000 0.1390000000
