Poscar v1.1 :: 1 :: B O Zn Tb
    1.000000000000000
     7.6861033287652150    0.0000000000000000    0.0000000000000000
     0.0000000000000000    8.6420422519511480   -0.5195005912609989
     0.0000000000000000    0.0172344574657066    9.4319610657170560
   B    O    Zn   Tb
    20    40     4     4
Direct
  0.4263018802064155  0.0825638027597401  0.7455770419443420
  0.8133165915699727  0.5652309392708932  0.0877341933406272
  0.3133165915699727  0.9347690607291068  0.4122658066593728
  0.1866834084300274  0.4347690607291066  0.9122658066593727
  0.6866834084300273  0.0652309392708933  0.5877341933406273
  0.1029409299903598  0.6590241944988848  0.5089759677249905
  0.6029409299903599  0.8409758055011152  0.9910240322750095
  0.8970590700096401  0.3409758055011153  0.4910240322750096
  0.3970590700096402  0.1590241944988847  0.0089759677249904
  0.9263018802064156  0.4174361972402600  0.7544229580556580
  0.5736981197935844  0.9174361972402598  0.2544229580556580
  0.0736981197935845  0.5825638027597402  0.2455770419443419
  0.6753355161042357  0.5173123820034924  0.6030868520808058
  0.1753355161042355  0.9826876179965076  0.8969131479191942
  0.3246644838957644  0.4826876179965076  0.3969131479191943
  0.8246644838957643  0.0173123820034924  0.1030868520808057
  0.4692325936980146  0.2776750259525797  0.5571851266363773
  0.9692325936980145  0.2223249740474203  0.9428148733636227
  0.5307674063019855  0.7223249740474204  0.4428148733636228
  0.0307674063019855  0.7776750259525796  0.0571851266363773
  0.7970925060972456  0.5373923496870273  0.7248695140751553
  0.3461775377655874  0.5077829528365718  0.9300645122892831
  0.8461775377655874  0.9922170471634282  0.5699354877107169
  0.6538224622344126  0.4922170471634282  0.0699354877107169
  0.1538224622344127  0.0077829528365718  0.4300645122892832
  0.5554103633942284  0.7573934463418805  0.8720685508458095
  0.0554103633942285  0.7426065536581195  0.6279314491541905
  0.4445896366057715  0.2426065536581195  0.1279314491541905
  0.2970925060972458  0.9626076503129727  0.7751304859248447
  0.9445896366057716  0.2573934463418805  0.3720685508458095
  0.7029074939027544  0.0373923496870273  0.2248695140751553
  0.2029074939027542  0.4626076503129727  0.2751304859248446
  0.4678936658698504  0.1817811769370586  0.8777483520243397
  0.9678936658698505  0.3182188230629414  0.6222516479756603
  0.5321063341301495  0.8182188230629414  0.1222516479756604
  0.0321063341301496  0.6817811769370586  0.3777483520243395
  0.5915126756732066  0.0108654123608076  0.6982957723164482
  0.0915126756732066  0.4891345876391924  0.8017042276835518
  0.4084873243267935  0.9891345876391925  0.3017042276835517
  0.9084873243267934  0.5108654123608075  0.1982957723164482
  0.3528076790556181  0.1823954791155402  0.6393763076902269
  0.8528076790556181  0.3176045208844598  0.8606236923097731
  0.6471923209443819  0.8176045208844598  0.3606236923097729
  0.1471923209443819  0.6823954791155402  0.1393763076902272
  0.5315942501490888  0.4145114677190509  0.6500970960866997
  0.0315942501490889  0.0854885322809491  0.8499029039133003
  0.4684057498509112  0.5854885322809492  0.3499029039133001
  0.9684057498509112  0.9145114677190508  0.1500970960866999
  0.6077125044127090  0.6739913714964509  0.5788248755882437
  0.1077125044127089  0.8260086285035491  0.9211751244117563
  0.3922874955872911  0.3260086285035489  0.4211751244117562
  0.8751353612236774  0.6814892409600236  0.0093022567935729
  0.7673844532912396  0.4519873833977402  0.4768566952655959
  0.2673844532912396  0.0480126166022598  0.0231433047344041
  0.2326155467087603  0.5480126166022596  0.5231433047344040
  0.7326155467087604  0.9519873833977404  0.9768566952655960
  0.6248646387763226  0.1814892409600236  0.5093022567935730
  0.1248646387763225  0.3185107590399763  0.9906977432064270
  0.3751353612236775  0.8185107590399764  0.4906977432064271
  0.8922874955872910  0.1739913714964510  0.0788248755882509
  0.5904710026762143  0.3919466929859625  0.8731546904142818
  0.0904710026762215  0.1080533070140375  0.6268453095857182
  0.4095289973237856  0.6080533070140374  0.1268453095857182
  0.9095289973237857  0.8919466929859626  0.3731546904142817
  0.8164082020837701  0.8138369621151568  0.7588232904004419
  0.3164082020837701  0.6861630378848432  0.7411767095995581
  0.1835917979162300  0.1861630378848434  0.2411767095995582
  0.6835917979162299  0.3138369621151567  0.2588232904004418

  0.00000000E+00  0.00000000E+00  0.00000000E+00
  0.00000000E+00  0.00000000E+00  0.00000000E+00
  0.00000000E+00  0.00000000E+00  0.00000000E+00
  0.00000000E+00  0.00000000E+00  0.00000000E+00
  0.00000000E+00  0.00000000E+00  0.00000000E+00
  0.00000000E+00  0.00000000E+00  0.00000000E+00
  0.00000000E+00  0.00000000E+00  0.00000000E+00
  0.00000000E+00  0.00000000E+00  0.00000000E+00
  0.00000000E+00  0.00000000E+00  0.00000000E+00
  0.00000000E+00  0.00000000E+00  0.00000000E+00
  0.00000000E+00  0.00000000E+00  0.00000000E+00
  0.00000000E+00  0.00000000E+00  0.00000000E+00
  0.00000000E+00  0.00000000E+00  0.00000000E+00
  0.00000000E+00  0.00000000E+00  0.00000000E+00
  0.00000000E+00  0.00000000E+00  0.00000000E+00
  0.00000000E+00  0.00000000E+00  0.00000000E+00
  0.00000000E+00  0.00000000E+00  0.00000000E+00
  0.00000000E+00  0.00000000E+00  0.00000000E+00
  0.00000000E+00  0.00000000E+00  0.00000000E+00
  0.00000000E+00  0.00000000E+00  0.00000000E+00
  0.00000000E+00  0.00000000E+00  0.00000000E+00
  0.00000000E+00  0.00000000E+00  0.00000000E+00
  0.00000000E+00  0.00000000E+00  0.00000000E+00
  0.00000000E+00  0.00000000E+00  0.00000000E+00
  0.00000000E+00  0.00000000E+00  0.00000000E+00
  0.00000000E+00  0.00000000E+00  0.00000000E+00
  0.00000000E+00  0.00000000E+00  0.00000000E+00
  0.00000000E+00  0.00000000E+00  0.00000000E+00
  0.00000000E+00  0.00000000E+00  0.00000000E+00
  0.00000000E+00  0.00000000E+00  0.00000000E+00
  0.00000000E+00  0.00000000E+00  0.00000000E+00
  0.00000000E+00  0.00000000E+00  0.00000000E+00
  0.00000000E+00  0.00000000E+00  0.00000000E+00
  0.00000000E+00  0.00000000E+00  0.00000000E+00
  0.00000000E+00  0.00000000E+00  0.00000000E+00
  0.00000000E+00  0.00000000E+00  0.00000000E+00
  0.00000000E+00  0.00000000E+00  0.00000000E+00
  0.00000000E+00  0.00000000E+00  0.00000000E+00
  0.00000000E+00  0.00000000E+00  0.00000000E+00
  0.00000000E+00  0.00000000E+00  0.00000000E+00
  0.00000000E+00  0.00000000E+00  0.00000000E+00
  0.00000000E+00  0.00000000E+00  0.00000000E+00
  0.00000000E+00  0.00000000E+00  0.00000000E+00
  0.00000000E+00  0.00000000E+00  0.00000000E+00
  0.00000000E+00  0.00000000E+00  0.00000000E+00
  0.00000000E+00  0.00000000E+00  0.00000000E+00
  0.00000000E+00  0.00000000E+00  0.00000000E+00
  0.00000000E+00  0.00000000E+00  0.00000000E+00
  0.00000000E+00  0.00000000E+00  0.00000000E+00
  0.00000000E+00  0.00000000E+00  0.00000000E+00
  0.00000000E+00  0.00000000E+00  0.00000000E+00
  0.00000000E+00  0.00000000E+00  0.00000000E+00
  0.00000000E+00  0.00000000E+00  0.00000000E+00
  0.00000000E+00  0.00000000E+00  0.00000000E+00
  0.00000000E+00  0.00000000E+00  0.00000000E+00
  0.00000000E+00  0.00000000E+00  0.00000000E+00
  0.00000000E+00  0.00000000E+00  0.00000000E+00
  0.00000000E+00  0.00000000E+00  0.00000000E+00
  0.00000000E+00  0.00000000E+00  0.00000000E+00
  0.00000000E+00  0.00000000E+00  0.00000000E+00
  0.00000000E+00  0.00000000E+00  0.00000000E+00
  0.00000000E+00  0.00000000E+00  0.00000000E+00
  0.00000000E+00  0.00000000E+00  0.00000000E+00
  0.00000000E+00  0.00000000E+00  0.00000000E+00
  0.00000000E+00  0.00000000E+00  0.00000000E+00
  0.00000000E+00  0.00000000E+00  0.00000000E+00
  0.00000000E+00  0.00000000E+00  0.00000000E+00
  0.00000000E+00  0.00000000E+00  0.00000000E+00
