Li2 O1                                  
   1.00000000000000     
     2.3149878218695079    2.3149878218695079   -0.0000000000000000
     0.0000000000000000    2.3149878218695079    2.3149878218695079
     2.3149878218695079    0.0000000000000000    2.3149878218695079
   Li   O 
     2     1
Direct
  0.7500000000000000  0.7500000000000000  0.7500000000000000
  0.2500000000000000  0.2500000000000000  0.2500000000000000
  0.0000000000000000 -0.0000000000000000 -0.0000000000000000
 
  0.00000000E+00  0.00000000E+00  0.00000000E+00
  0.00000000E+00  0.00000000E+00  0.00000000E+00
  0.00000000E+00  0.00000000E+00  0.00000000E+00
