Poscar v1.1 :: 1 :: B O Zn Tb
    1.000000000000000
     7.6849535636306160    0.0000000000000000    0.0000000000000000
     0.0000000000000000    8.6426120438853380   -0.5199677088572543
     0.0000000000000000    0.0167595380222473    9.4325211860681280
   B    O    Zn   Tb
    20    40     4     4
Direct
  0.4262732468997869  0.0825573968437173  0.7455533962062063
  0.8133064077034571  0.5652417483034198  0.0877282337539440
  0.3133064077034576  0.9347582516965802  0.4122717662460560
  0.1866935922965425  0.4347582516965801  0.9122717662460562
  0.6866935922965429  0.0652417483034199  0.5877282337539438
  0.1029150839399456  0.6589780674141260  0.5089535185096974
  0.6029150839399453  0.8410219325858740  0.9910464814903026
  0.8970849160600547  0.3410219325858740  0.4910464814903024
  0.3970849160600542  0.1589780674141262  0.0089535185096976
  0.9262732468997874  0.4174426031562828  0.7544466037937937
  0.5737267531002126  0.9174426031562822  0.2544466037937933
  0.0737267531002129  0.5825573968437178  0.2455533962062065
  0.6753016268299999  0.5173088087397399  0.6030846773472777
  0.1753016268300002  0.9826911912602601  0.8969153226527223
  0.3246983731699996  0.4826911912602599  0.3969153226527222
  0.8246983731700001  0.0173088087397401  0.1030846773472777
  0.4692483740268553  0.2776763716575032  0.5571871852730749
  0.9692483740268552  0.2223236283424969  0.9428128147269251
  0.5307516259731448  0.7223236283424967  0.4428128147269250
  0.0307516259731447  0.7776763716575033  0.0571871852730750
  0.7970389258693202  0.5373856171202007  0.7248961094902571
  0.3462067882604135  0.5077721392453485  0.9300637364389091
  0.8462067882604133  0.9922278607546515  0.5699362635610909
  0.6537932117395867  0.4922278607546520  0.0699362635610909
  0.1537932117395866  0.0077721392453482  0.4300637364389091
  0.5553572058726606  0.7574448118826621  0.8720879253282837
  0.0553572058726608  0.7425551881173379  0.6279120746717163
  0.4446427941273391  0.2425551881173374  0.1279120746717165
  0.2970389258693204  0.9626143828797993  0.7751038905097429
  0.9446427941273394  0.2574448118826625  0.3720879253282834
  0.7029610741306798  0.0373856171202008  0.2248961094902575
  0.2029610741306794  0.4626143828797994  0.2751038905097426
  0.4678754596686493  0.1817694154471954  0.8777299058920345
  0.9678754596686491  0.3182305845528047  0.6222700941079655
  0.5321245403313509  0.8182305845528052  0.1222700941079654
  0.0321245403313510  0.6817694154471948  0.3777299058920346
  0.5915182468636355  0.0108820149201577  0.6982732020143591
  0.0915182468636357  0.4891179850798422  0.8017267979856409
  0.4084817531363641  0.9891179850798426  0.3017267979856408
  0.9084817531363645  0.5108820149201574  0.1982732020143591
  0.3527927419959534  0.1823962932860022  0.6393675135945371
  0.8527927419959540  0.3176037067139978  0.8606324864054629
  0.6472072580040460  0.8176037067139980  0.3606324864054631
  0.1472072580040466  0.6823962932860020  0.1393675135945371
  0.5315778358577437  0.4144936466198002  0.6500877670027956
  0.0315778358577437  0.0855063533801998  0.8499122329972044
  0.4684221641422565  0.5855063533801994  0.3499122329972046
  0.9684221641422563  0.9144936466198006  0.1500877670027956
  0.6076549694763760  0.6739795610381246  0.5788390725276511
  0.1076549694763759  0.8260204389618754  0.9211609274723489
  0.3923450305236241  0.3260204389618756  0.4211609274723486
  0.8751098393789410  0.6814864503061693  0.0093005357525362
  0.7674204566530423  0.4520323238576692  0.4768656686483362
  0.2674204566530426  0.0479676761423306  0.0231343313516639
  0.2325795433469574  0.5479676761423304  0.5231343313516639
  0.7325795433469577  0.9520323238576696  0.9768656686483361
  0.6248901606210590  0.1814864503061692  0.5093005357525363
  0.1248901606210589  0.3185135496938306  0.9906994642474637
  0.3751098393789410  0.8185135496938307  0.4906994642474637
  0.8923450305236240  0.1739795610381244  0.0788390725276586
  0.5904492793805970  0.3919143037526157  0.8731755786312873
  0.0904492793806043  0.1080856962473844  0.6268244213687127
  0.4095507206194028  0.6080856962473845  0.1268244213687123
  0.9095507206194030  0.8919143037526155  0.3731755786312879
  0.8163572178638759  0.8138026663538908  0.7588183941201695
  0.3163572178638762  0.6861973336461092  0.7411816058798305
  0.1836427821361239  0.1861973336461096  0.2411816058798306
  0.6836427821361241  0.3138026663538904  0.2588183941201697

  0.00000000E+00  0.00000000E+00  0.00000000E+00
  0.00000000E+00  0.00000000E+00  0.00000000E+00
  0.00000000E+00  0.00000000E+00  0.00000000E+00
  0.00000000E+00  0.00000000E+00  0.00000000E+00
  0.00000000E+00  0.00000000E+00  0.00000000E+00
  0.00000000E+00  0.00000000E+00  0.00000000E+00
  0.00000000E+00  0.00000000E+00  0.00000000E+00
  0.00000000E+00  0.00000000E+00  0.00000000E+00
  0.00000000E+00  0.00000000E+00  0.00000000E+00
  0.00000000E+00  0.00000000E+00  0.00000000E+00
  0.00000000E+00  0.00000000E+00  0.00000000E+00
  0.00000000E+00  0.00000000E+00  0.00000000E+00
  0.00000000E+00  0.00000000E+00  0.00000000E+00
  0.00000000E+00  0.00000000E+00  0.00000000E+00
  0.00000000E+00  0.00000000E+00  0.00000000E+00
  0.00000000E+00  0.00000000E+00  0.00000000E+00
  0.00000000E+00  0.00000000E+00  0.00000000E+00
  0.00000000E+00  0.00000000E+00  0.00000000E+00
  0.00000000E+00  0.00000000E+00  0.00000000E+00
  0.00000000E+00  0.00000000E+00  0.00000000E+00
  0.00000000E+00  0.00000000E+00  0.00000000E+00
  0.00000000E+00  0.00000000E+00  0.00000000E+00
  0.00000000E+00  0.00000000E+00  0.00000000E+00
  0.00000000E+00  0.00000000E+00  0.00000000E+00
  0.00000000E+00  0.00000000E+00  0.00000000E+00
  0.00000000E+00  0.00000000E+00  0.00000000E+00
  0.00000000E+00  0.00000000E+00  0.00000000E+00
  0.00000000E+00  0.00000000E+00  0.00000000E+00
  0.00000000E+00  0.00000000E+00  0.00000000E+00
  0.00000000E+00  0.00000000E+00  0.00000000E+00
  0.00000000E+00  0.00000000E+00  0.00000000E+00
  0.00000000E+00  0.00000000E+00  0.00000000E+00
  0.00000000E+00  0.00000000E+00  0.00000000E+00
  0.00000000E+00  0.00000000E+00  0.00000000E+00
  0.00000000E+00  0.00000000E+00  0.00000000E+00
  0.00000000E+00  0.00000000E+00  0.00000000E+00
  0.00000000E+00  0.00000000E+00  0.00000000E+00
  0.00000000E+00  0.00000000E+00  0.00000000E+00
  0.00000000E+00  0.00000000E+00  0.00000000E+00
  0.00000000E+00  0.00000000E+00  0.00000000E+00
  0.00000000E+00  0.00000000E+00  0.00000000E+00
  0.00000000E+00  0.00000000E+00  0.00000000E+00
  0.00000000E+00  0.00000000E+00  0.00000000E+00
  0.00000000E+00  0.00000000E+00  0.00000000E+00
  0.00000000E+00  0.00000000E+00  0.00000000E+00
  0.00000000E+00  0.00000000E+00  0.00000000E+00
  0.00000000E+00  0.00000000E+00  0.00000000E+00
  0.00000000E+00  0.00000000E+00  0.00000000E+00
  0.00000000E+00  0.00000000E+00  0.00000000E+00
  0.00000000E+00  0.00000000E+00  0.00000000E+00
  0.00000000E+00  0.00000000E+00  0.00000000E+00
  0.00000000E+00  0.00000000E+00  0.00000000E+00
  0.00000000E+00  0.00000000E+00  0.00000000E+00
  0.00000000E+00  0.00000000E+00  0.00000000E+00
  0.00000000E+00  0.00000000E+00  0.00000000E+00
  0.00000000E+00  0.00000000E+00  0.00000000E+00
  0.00000000E+00  0.00000000E+00  0.00000000E+00
  0.00000000E+00  0.00000000E+00  0.00000000E+00
  0.00000000E+00  0.00000000E+00  0.00000000E+00
  0.00000000E+00  0.00000000E+00  0.00000000E+00
  0.00000000E+00  0.00000000E+00  0.00000000E+00
  0.00000000E+00  0.00000000E+00  0.00000000E+00
  0.00000000E+00  0.00000000E+00  0.00000000E+00
  0.00000000E+00  0.00000000E+00  0.00000000E+00
  0.00000000E+00  0.00000000E+00  0.00000000E+00
  0.00000000E+00  0.00000000E+00  0.00000000E+00
  0.00000000E+00  0.00000000E+00  0.00000000E+00
  0.00000000E+00  0.00000000E+00  0.00000000E+00
