#Generated by RubyVasp
0
Monkhorst
4 4 4
0 0 0
