Poscar v1.1 :: 1 :: B O Zn Tb
1.0
7.6050000000 0.0000000000 0.0000000000
0.0000000000 8.5654301951 -0.5330380592
0.0000000000 0.0000000000 9.3930000000
 20 40 4 4
Direct
0.4247000000 0.0838000000 0.7424000000
0.8122000000 0.5646000000 0.0880000000
0.3122000000 0.9354000000 0.4120000000
0.1878000000 0.4354000000 0.9120000000
0.6878000000 0.0646000000 0.5880000000
0.1017000000 0.6585000000 0.5050000000
0.6017000000 0.8415000000 0.9950000000
0.8983000000 0.3415000000 0.4950000000
0.3983000000 0.1585000000 0.0050000000
0.9247000000 0.4162000000 0.7576000000
0.5753000000 0.9162000000 0.2576000000
0.0753000000 0.5838000000 0.2424000000
0.6733000000 0.5187000000 0.6042000000
0.1733000000 0.9813000000 0.8958000000
0.3267000000 0.4813000000 0.3958000000
0.8267000000 0.0187000000 0.1042000000
0.4671000000 0.2776000000 0.5551000000
0.9671000000 0.2224000000 0.9449000000
0.5329000000 0.7224000000 0.4449000000
0.0329000000 0.7776000000 0.0551000000
0.7934000000 0.5360000000 0.7292000000
0.3502000000 0.5061000000 0.9294000000
0.8502000000 0.9939000000 0.5706000000
0.6498000000 0.4939000000 0.0706000000
0.1498000000 0.0061000000 0.4294000000
0.5529000000 0.7575000000 0.8751000000
0.0529000000 0.7425000000 0.6249000000
0.4471000000 0.2425000000 0.1249000000
0.2934000000 0.9640000000 0.7708000000
0.9471000000 0.2575000000 0.3751000000
0.7066000000 0.0360000000 0.2292000000
0.2066000000 0.4640000000 0.2708000000
0.4673000000 0.1840000000 0.8740000000
0.9673000000 0.3160000000 0.6260000000
0.5327000000 0.8160000000 0.1260000000
0.0327000000 0.6840000000 0.3740000000
0.5904000000 0.0102000000 0.6960000000
0.0904000000 0.4898000000 0.8040000000
0.4096000000 0.9898000000 0.3040000000
0.9096000000 0.5102000000 0.1960000000
0.3497000000 0.1826000000 0.6362000000
0.8497000000 0.3174000000 0.8638000000
0.6503000000 0.8174000000 0.3638000000
0.1503000000 0.6826000000 0.1362000000
0.5291000000 0.4158000000 0.6490000000
0.0291000000 0.0842000000 0.8510000000
0.4709000000 0.5842000000 0.3510000000
0.9709000000 0.9158000000 0.1490000000
0.6072000000 0.6758000000 0.5808000000
0.1072000000 0.8242000000 0.9192000000
0.3928000000 0.3242000000 0.4192000000
0.8730000000 0.6832000000 0.0094000000
0.7715000000 0.4561000000 0.4792000000
0.2715000000 0.0439000000 0.0208000000
0.2285000000 0.5439000000 0.5208000000
0.7285000000 0.9561000000 0.9792000000
0.6270000000 0.1832000000 0.5094000000
0.1270000000 0.3168000000 0.9906000000
0.3730000000 0.8168000000 0.4906000000
0.8928000000 0.1758000000 0.0808000000
0.5905600000 0.3936100000 0.8738000000
0.0905600000 0.1063900000 0.6262000000
0.4094400000 0.6063900000 0.1262000000
0.9094400000 0.8936100000 0.3738000000
0.8178700000 0.8157500000 0.7614800000
0.3178700000 0.6842500000 0.7385200000
0.1821300000 0.1842500000 0.2385200000
0.6821300000 0.3157500000 0.2614800000
